============================[ Problem Statistics ]=============================|                                                                             ||  Number of variables:          4242                                         ||  Number of clauses:           10022                                         ||  Parse time:                   0.43 s                                       ||                                                                             |============================[ Search Statistics ]==============================| Conflicts |          ORIGINAL         |          LEARNT          | Progress ||           |    Vars  Clauses Literals |    Limit  Clauses Lit/Cl |          |===============================================================================|       100 |    1591     6227   654558 |     2283      100     53 | 62.501 % |===============================================================================restarts              : 3conflicts             : 235            (372 /sec)decisions             : 500            (0.00 % random) (791 /sec)propagations          : 11722          (18547 /sec)conflict literals     : 17447          (94.96 % deleted)CPU time              : 0.632 sSATISFIABLE